unsat
(define-fun f ((x (_ BitVec 64))) (_ BitVec 64) (let ((_let_1 (shr16 x))) (if0 (bvand #b0000000000000000000000000000000000000000000000000000000000000001 _let_1) _let_1 (if0 (bvand #b0000000000000000000000000000000000000000000000000000000000000001 (bvnot x)) (bvnot #b0000000000000000000000000000000000000000000000000000000000000001) (bvnot #b0000000000000000000000000000000000000000000000000000000000000000)))))
0.40user 0.01system 0:00.41elapsed 100%CPU (0avgtext+0avgdata 58164maxresident)k
0inputs+8outputs (0major+9242minor)pagefaults 0swaps
